&control
  title = 'Water 32 molecules',
  calculation = 'cp',
  restart_mode = 'from_scratch',
  ndw = 50,                                      ! number directory write
  nstep = 25,                                    ! number of steps of the run
  iprint = 5,                                    ! frequency for printing the quantities
  isave = 1000,                                  ! frequency for wrting a restart file
  tprnfor = .TRUE.,                              ! compute the forces
  dt = 5.00d0,                                   ! timestep in Hartree atomic units
  prefix = 'H2O',
  pseudo_dir='/home/maglab1/ACuoghi/QE/pseudo/', ! pseudopotential directory
  outdir='/home/maglab1/ACuoghi/QE/H2O/',        ! output directory
/

&system
  ibrav=1, celldm(1)=18.88                       ! cubic lattice of side celldm(1) in Bohr radius
  nat = 96,                                      ! number of atoms
  ntyp = 2,                                      ! type of atoms
  ecutwfc = 50.0,                                ! kinetic energy cutoff (Ry) for wavefunctions
/

&electrons
  electron_dynamics = 'cg',
/

&ions
  ion_dynamics = 'verlet',
  ion_velocities = 'random',                     ! sampling the Boltzmann's distribution at a given 
  tempw = 600.0d0                                ! temperature 
/

ATOMIC_SPECIES
  O  16.000d0  O_ONCV_PBE-1.2.upf
  H  1.0079d0  H_ONCV_PBE-1.2.upf

ATOMIC_POSITIONS (angstrom)
  O            9.498370        3.721840        2.768978
  H            9.945279        3.356063        3.585357
  H            8.536024        3.472563        2.877363
  O            7.488433        0.003453        3.378951
  H            8.117026        0.473478        2.759319
  H            7.845475        0.197672        4.292622
  O            9.012045        5.928389        5.359589
  H            9.604503        5.227726        5.757156
  H            9.419702        6.124451        4.467753
  O            1.137069        9.812626        0.849510
  H            1.883901        9.983213        1.492267
  H            1.522156       10.034275       -0.046355
  O            0.506286        2.713300        8.302289
  H           -0.003766        3.566724        8.409577
  H            1.455706        3.002633        8.180294
  O            9.547974        9.623793       -0.008636
  H           10.003508       10.028042        0.784501
  H            8.590126        9.894370        0.087859
  O            2.640235        0.336105        6.236709
  H            2.789740        0.009110        7.169832
  H            1.715488        0.030784        6.009512
  O            7.933304        9.922927        9.785420
  H            8.448739        9.095153       10.007034
  H            6.988533        9.610589        9.686173
  O            0.004035        5.489448        6.091542
  H            0.138532        4.528188        5.850947
  H            0.108776        5.980996        5.227016
  O            0.508776        0.069731        9.536364
  H            0.396288       -0.021493        8.546910
  H            1.497785        0.035449        9.680175
  O            4.320311        5.368774        6.778258
  H            4.789455        5.372020        5.895145
  H            4.772624        4.645054        7.299446
  O            6.497818        7.081446        7.688306
  H            7.337107        7.188891        8.221265
  H            6.216674        8.016567        7.472660
  O            5.901456        9.325230        4.865774
  H            6.057904        9.849832        4.028927
  H            5.725250       10.017207        5.565857
  O            7.844359        3.334597       -0.008625
  H            7.054256        3.871324        0.287445
  H            7.735435        2.453657        0.451892
  O           10.033726        6.654392        8.068810
  H            9.856869        6.167877        8.924392
  H           10.051042        7.619870        8.328709
  O           -0.002780        3.025405        2.790965
  H            0.485090        2.169132        2.960595
  H            0.627583        3.738014        3.098904
  O            5.979061        0.488278        8.189576
  H            5.333970        1.020480        7.641295
  H            6.545233        0.011381        7.517257
  O            2.710896        4.351022        0.007087
  H            1.864627        3.818285        0.011075
  H            3.438546        3.665124       -0.000985
  O            2.765441        7.585866        0.113043
  H            1.962740        6.989726        0.096204
  H            3.540424        6.959952        0.200379
  O            3.725143        7.859950        9.906435
  H            4.676158        8.124127        9.745886
  H            3.238052        8.727352       10.008181
  O           10.000387        2.436023        8.472719
  H            9.607514        3.341468        8.633389
  H            9.893718        2.287631        7.489562
  O            9.066490        6.553402        0.832245
  H            9.953087        7.008362        0.748872
  H            8.415450        7.298360        0.977780
  O            4.620620        4.665087        2.933804
  H            5.427358        4.300724        2.468606
  H            4.864002        5.609598        3.154393
  O            0.669597        6.088964        9.268417
  H            1.218389        6.924921        9.268807
  H            1.052557        5.537654       10.009629
  O            8.761555        9.416183        6.696683
  H            9.601019        9.955712        6.761521
  H            8.045964       10.024099        7.040722
  O            3.742032        8.523247        3.378265
  H            3.337576        9.361986        3.742858
  H            3.289075        7.787437        3.881663
  O            1.435960        1.103725        0.003157
  H            1.141033        0.180243        0.248500
  H            2.402004        1.134523        0.259681
  O            4.541833        3.189426       10.001833
  H            5.292863        2.532083        9.939800
  H            3.717280        2.641683        9.860113
  O            0.011195        9.199262        4.034670
  H            0.629356        9.979463        3.938971
  H           -0.009781        8.783397        3.125488
  O            3.781032        9.285540        7.372134
  H            3.152396       10.031617        7.591636
  H            3.190695        8.486917        7.255091
  O            0.571358        9.124738        7.754569
  H           -0.015337        9.926849        7.865936
  H           -0.022305        8.436123        7.338193
  O            4.879524        0.615739        4.398813
  H            5.224130       -0.013219        5.095702
  H            4.205459        0.080507        3.889737
